p cnf 522 1348
c uncontrollable inputs:
a 1 2 5 6 9 11 13 0
c state variables:
a 16 17 18 19 20 21 22 23 24 25 26 27 28 29 30 31 32 33 34 35 36 37 38 39 40 41 42 43 0
c next state variables:
a 44 45 46 47 48 49 50 51 52 53 54 55 56 57 58 59 60 61 62 63 64 65 66 67 68 69 70 71 0
c controllable inputs
d 3 1 2 5 6 9 11 13 16 17 18 19 20 21 22 23 24 25 26 27 28 29 30 31 32 33 34 35 36 37 38 39 40 41 42 43 0
d 4 1 2 5 6 9 11 13 16 17 18 19 20 21 22 23 24 25 26 27 28 29 30 31 32 33 34 35 36 37 38 39 40 41 42 43 0
d 7 1 2 5 6 9 11 13 16 17 18 19 20 21 22 23 24 25 26 27 28 29 30 31 32 33 34 35 36 37 38 39 40 41 42 43 0
d 8 1 2 5 6 9 11 13 16 17 18 19 20 21 22 23 24 25 26 27 28 29 30 31 32 33 34 35 36 37 38 39 40 41 42 43 0
d 10 1 2 5 6 9 11 13 16 17 18 19 20 21 22 23 24 25 26 27 28 29 30 31 32 33 34 35 36 37 38 39 40 41 42 43 0
d 12 1 2 5 6 9 11 13 16 17 18 19 20 21 22 23 24 25 26 27 28 29 30 31 32 33 34 35 36 37 38 39 40 41 42 43 0
d 14 1 2 5 6 9 11 13 16 17 18 19 20 21 22 23 24 25 26 27 28 29 30 31 32 33 34 35 36 37 38 39 40 41 42 43 0
d 15 1 2 5 6 9 11 13 16 17 18 19 20 21 22 23 24 25 26 27 28 29 30 31 32 33 34 35 36 37 38 39 40 41 42 43 0
c winning region (state)
d 72 16 17 18 19 20 21 22 23 24 25 26 27 28 29 30 31 32 33 34 35 36 37 38 39 40 41 42 43 0
c winning region (next state)
d 73 44 45 46 47 48 49 50 51 52 53 54 55 56 57 58 59 60 61 62 63 64 65 66 67 68 69 70 71 0
c tseitin variables
e 74 75 76 77 78 79 80 81 82 83 84 85 86 87 88 89 90 91 92 93 94 95 96 97 98 99 100 101 102 103 104 105 106 107 108 109 110 111 112 113 114 115 116 117 118 119 120 121 122 123 124 125 126 127 128 129 130 131 132 133 134 135 136 137 138 139 140 141 142 143 144 145 146 147 148 149 150 151 152 153 154 155 156 157 158 159 160 161 162 163 164 165 166 167 168 169 170 171 172 173 174 175 176 177 178 179 180 181 182 183 184 185 186 187 188 189 190 191 192 193 194 195 196 197 198 199 200 201 202 203 204 205 206 207 208 209 210 211 212 213 214 215 216 217 218 219 220 221 222 223 224 225 226 227 228 229 230 231 232 233 234 235 236 237 238 239 240 241 242 243 244 245 246 247 248 249 250 251 252 253 254 255 256 257 258 259 260 261 262 263 264 265 266 267 268 269 270 271 272 273 274 275 276 277 278 279 280 281 282 283 284 285 286 287 288 289 290 291 292 293 294 295 296 297 298 299 300 301 302 303 304 305 306 307 308 309 310 311 312 313 314 315 316 317 318 319 320 321 322 323 324 325 326 327 328 329 330 331 332 333 334 335 336 337 338 339 340 341 342 343 344 345 346 347 348 349 350 351 352 353 354 355 356 357 358 359 360 361 362 363 364 365 366 367 368 369 370 371 372 373 374 375 376 377 378 379 380 381 382 383 384 385 386 387 388 389 390 391 392 393 394 395 396 397 398 399 400 401 402 403 404 405 406 407 408 409 410 411 412 413 414 415 416 417 418 419 420 421 422 423 424 425 426 427 428 429 430 431 432 433 434 435 436 437 438 439 440 441 442 443 444 445 446 447 448 449 450 451 452 453 454 455 456 457 458 459 460 461 462 463 464 465 466 467 468 469 470 471 472 473 474 475 476 477 478 479 480 481 482 483 484 485 486 487 488 489 490 491 492 493 494 495 496 497 498 499 500 501 502 503 504 505 506 507 508 509 510 511 512 513 514 515 516 517 518 519 520 521 522 0
c clauses:
-74 -44 0
-74 16 0
74 44 -16 0
-75 44 0
-75 -16 0
75 -44 16 0
-76 -74 0
-76 -75 0
76 74 75 0
-77 -45 0
-77 17 0
77 45 -17 0
-78 45 0
-78 -17 0
78 -45 17 0
-79 -77 0
-79 -78 0
79 77 78 0
-80 76 0
-80 79 0
80 -76 -79 0
-81 -46 0
-81 18 0
81 46 -18 0
-82 46 0
-82 -18 0
82 -46 18 0
-83 -81 0
-83 -82 0
83 81 82 0
-84 -47 0
-84 19 0
84 47 -19 0
-85 47 0
-85 -19 0
85 -47 19 0
-86 -84 0
-86 -85 0
86 84 85 0
-87 83 0
-87 86 0
87 -83 -86 0
-88 80 0
-88 87 0
88 -80 -87 0
-89 -48 0
-89 20 0
89 48 -20 0
-90 48 0
-90 -20 0
90 -48 20 0
-91 -89 0
-91 -90 0
91 89 90 0
-92 -49 0
-92 21 0
92 49 -21 0
-93 49 0
-93 -21 0
93 -49 21 0
-94 -92 0
-94 -93 0
94 92 93 0
-95 91 0
-95 94 0
95 -91 -94 0
-96 -50 0
-96 22 0
96 50 -22 0
-97 50 0
-97 -22 0
97 -50 22 0
-98 -96 0
-98 -97 0
98 96 97 0
-99 -51 0
-99 23 0
99 51 -23 0
-100 51 0
-100 -23 0
100 -51 23 0
-101 -99 0
-101 -100 0
101 99 100 0
-102 98 0
-102 101 0
102 -98 -101 0
-103 95 0
-103 102 0
103 -95 -102 0
-104 88 0
-104 103 0
104 -88 -103 0
-105 -52 0
-105 24 0
105 52 -24 0
-106 52 0
-106 -24 0
106 -52 24 0
-107 -105 0
-107 -106 0
107 105 106 0
-108 -53 0
-108 25 0
108 53 -25 0
-109 53 0
-109 -25 0
109 -53 25 0
-110 -108 0
-110 -109 0
110 108 109 0
-111 107 0
-111 110 0
111 -107 -110 0
-112 -54 0
-112 26 0
112 54 -26 0
-113 54 0
-113 -26 0
113 -54 26 0
-114 -112 0
-114 -113 0
114 112 113 0
-115 -55 0
-115 27 0
115 55 -27 0
-116 55 0
-116 -27 0
116 -55 27 0
-117 -115 0
-117 -116 0
117 115 116 0
-118 114 0
-118 117 0
118 -114 -117 0
-119 111 0
-119 118 0
119 -111 -118 0
-120 -56 0
-120 28 0
120 56 -28 0
-121 56 0
-121 -28 0
121 -56 28 0
-122 -120 0
-122 -121 0
122 120 121 0
-123 -57 0
-123 29 0
123 57 -29 0
-124 57 0
-124 -29 0
124 -57 29 0
-125 -123 0
-125 -124 0
125 123 124 0
-126 122 0
-126 125 0
126 -122 -125 0
-127 -58 0
-127 30 0
127 58 -30 0
-128 58 0
-128 -30 0
128 -58 30 0
-129 -127 0
-129 -128 0
129 127 128 0
-130 -59 0
-130 31 0
130 59 -31 0
-131 59 0
-131 -31 0
131 -59 31 0
-132 -130 0
-132 -131 0
132 130 131 0
-133 129 0
-133 132 0
133 -129 -132 0
-134 126 0
-134 133 0
134 -126 -133 0
-135 119 0
-135 134 0
135 -119 -134 0
-136 104 0
-136 135 0
136 -104 -135 0
-137 -68 0
-137 40 0
137 68 -40 0
-138 68 0
-138 -40 0
138 -68 40 0
-139 -137 0
-139 -138 0
139 137 138 0
-140 -69 0
-140 41 0
140 69 -41 0
-141 69 0
-141 -41 0
141 -69 41 0
-142 -140 0
-142 -141 0
142 140 141 0
-143 139 0
-143 142 0
143 -139 -142 0
-144 -70 0
-144 42 0
144 70 -42 0
-145 70 0
-145 -42 0
145 -70 42 0
-146 -144 0
-146 -145 0
146 144 145 0
-147 -71 0
-147 43 0
147 71 -43 0
-148 71 0
-148 -43 0
148 -71 43 0
-149 -147 0
-149 -148 0
149 147 148 0
-150 146 0
-150 149 0
150 -146 -149 0
-151 143 0
-151 150 0
151 -143 -150 0
-152 -60 0
-152 32 0
152 60 -32 0
-153 60 0
-153 -32 0
153 -60 32 0
-154 -152 0
-154 -153 0
154 152 153 0
-155 -61 0
-155 33 0
155 61 -33 0
-156 61 0
-156 -33 0
156 -61 33 0
-157 -155 0
-157 -156 0
157 155 156 0
-158 154 0
-158 157 0
158 -154 -157 0
-159 -62 0
-159 34 0
159 62 -34 0
-160 62 0
-160 -34 0
160 -62 34 0
-161 -159 0
-161 -160 0
161 159 160 0
-162 -63 0
-162 35 0
162 63 -35 0
-163 63 0
-163 -35 0
163 -63 35 0
-164 -162 0
-164 -163 0
164 162 163 0
-165 161 0
-165 164 0
165 -161 -164 0
-166 158 0
-166 165 0
166 -158 -165 0
-167 -64 0
-167 36 0
167 64 -36 0
-168 64 0
-168 -36 0
168 -64 36 0
-169 -167 0
-169 -168 0
169 167 168 0
-170 -65 0
-170 37 0
170 65 -37 0
-171 65 0
-171 -37 0
171 -65 37 0
-172 -170 0
-172 -171 0
172 170 171 0
-173 169 0
-173 172 0
173 -169 -172 0
-174 -66 0
-174 38 0
174 66 -38 0
-175 66 0
-175 -38 0
175 -66 38 0
-176 -174 0
-176 -175 0
176 174 175 0
-177 -67 0
-177 39 0
177 67 -39 0
-178 67 0
-178 -39 0
178 -67 39 0
-179 -177 0
-179 -178 0
179 177 178 0
-180 176 0
-180 179 0
180 -176 -179 0
-181 173 0
-181 180 0
181 -173 -180 0
-182 166 0
-182 181 0
182 -166 -181 0
-183 151 0
-183 182 0
183 -151 -182 0
-184 136 0
-184 183 0
184 -136 -183 0
-185 73 0
-185 -72 0
185 -73 72 0
-186 -73 0
-186 72 0
186 73 -72 0
-187 -185 0
-187 -186 0
187 185 186 0
-188 184 0
-188 -187 0
188 -184 187 0
-189 27 0
-189 16 0
189 -27 -16 0
-190 34 0
-190 16 0
190 -34 -16 0
-191 33 0
-191 16 0
191 -33 -16 0
-192 32 0
-192 16 0
192 -32 -16 0
-193 -191 0
-193 -192 0
193 191 192 0
-194 -190 0
-194 193 0
194 190 -193 0
-195 -189 0
-195 194 0
195 189 -194 0
-196 22 0
-196 16 0
196 -22 -16 0
-197 20 0
-197 16 0
197 -20 -16 0
-198 18 0
-198 16 0
198 -18 -16 0
-199 -197 0
-199 -198 0
199 197 198 0
-200 -196 0
-200 199 0
200 196 -199 0
-201 -33 0
-201 192 0
201 33 -192 0
-202 201 0
-202 -190 0
202 -201 190 0
-203 200 0
-203 202 0
203 -200 -202 0
-204 8 0
-204 1 0
204 -8 -1 0
-205 -32 0
-205 191 0
205 32 -191 0
-206 -190 0
-206 205 0
206 190 -205 0
-207 -204 0
-207 206 0
207 204 -206 0
-208 -8 0
-208 2 0
208 8 -2 0
-209 32 0
-209 191 0
209 -32 -191 0
-210 -190 0
-210 209 0
210 190 -209 0
-211 -208 0
-211 210 0
211 208 -210 0
-212 17 0
-212 16 0
212 -17 -16 0
-213 13 0
-213 212 0
213 -13 -212 0
-214 30 0
-214 16 0
214 -30 -16 0
-215 214 0
-215 -212 0
215 -214 212 0
216 -213 0
216 -215 0
-216 213 215 0
-217 -211 0
-217 -216 0
217 211 216 0
-218 -207 0
-218 217 0
218 207 -217 0
-219 -203 0
-219 218 0
219 203 -218 0
-220 -195 0
-220 219 0
220 195 -219 0
-221 -45 0
-221 220 0
221 45 -220 0
-222 45 0
-222 -220 0
222 -45 220 0
-223 -221 0
-223 -222 0
223 221 222 0
-224 44 0
-224 223 0
224 -44 -223 0
-225 -4 0
-225 3 0
225 4 -3 0
-226 -6 0
-226 225 0
226 6 -225 0
-227 200 0
-227 226 0
227 -200 -226 0
-228 5 0
-228 227 0
228 -5 -227 0
-229 -13 0
-229 228 0
229 13 -228 0
-230 -20 0
-230 198 0
230 20 -198 0
-231 -196 0
-231 230 0
231 196 -230 0
-232 13 0
-232 231 0
232 -13 -231 0
-233 -18 0
-233 197 0
233 18 -197 0
-234 -196 0
-234 233 0
234 196 -233 0
-235 13 0
-235 234 0
235 -13 -234 0
-236 18 0
-236 197 0
236 -18 -197 0
-237 -196 0
-237 236 0
237 196 -236 0
-238 13 0
-238 237 0
238 -13 -237 0
-239 198 0
-239 -238 0
239 -198 238 0
-240 -235 0
-240 -239 0
240 235 239 0
-241 -232 0
-241 -240 0
241 232 240 0
-242 -229 0
-242 -241 0
242 229 241 0
-243 -46 0
-243 -242 0
243 46 242 0
-244 46 0
-244 242 0
244 -46 -242 0
-245 -243 0
-245 -244 0
245 243 244 0
-246 -47 0
-246 7 0
246 47 -7 0
-247 47 0
-247 -7 0
247 -47 7 0
-248 -246 0
-248 -247 0
248 246 247 0
-249 245 0
-249 248 0
249 -245 -248 0
-250 224 0
-250 249 0
250 -224 -249 0
-251 13 0
-251 228 0
251 -13 -228 0
-252 197 0
-252 -238 0
252 -197 238 0
-253 -232 0
-253 -252 0
253 232 252 0
-254 -251 0
-254 253 0
254 251 -253 0
-255 -48 0
-255 -254 0
255 48 254 0
-256 48 0
-256 254 0
256 -48 -254 0
-257 -255 0
-257 -256 0
257 255 256 0
-258 -49 0
-258 14 0
258 49 -14 0
-259 49 0
-259 -14 0
259 -49 14 0
-260 -258 0
-260 -259 0
260 258 259 0
-261 257 0
-261 260 0
261 -257 -260 0
-262 13 0
-262 199 0
262 -13 -199 0
-263 196 0
-263 -262 0
263 -196 262 0
-264 -238 0
-264 -263 0
264 238 263 0
-265 -50 0
-265 -264 0
265 50 264 0
-266 50 0
-266 264 0
266 -50 -264 0
-267 -265 0
-267 -266 0
267 265 266 0
-268 -51 0
-268 1 0
268 51 -1 0
-269 51 0
-269 -1 0
269 -51 1 0
-270 -268 0
-270 -269 0
270 268 269 0
-271 267 0
-271 270 0
271 -267 -270 0
-272 261 0
-272 271 0
272 -261 -271 0
-273 250 0
-273 272 0
273 -250 -272 0
-274 -52 0
-274 12 0
274 52 -12 0
-275 52 0
-275 -12 0
275 -52 12 0
-276 -274 0
-276 -275 0
276 274 275 0
-277 -53 0
-277 4 0
277 53 -4 0
-278 53 0
-278 -4 0
278 -53 4 0
-279 -277 0
-279 -278 0
279 277 278 0
-280 276 0
-280 279 0
280 -276 -279 0
-281 -54 0
-281 2 0
281 54 -2 0
-282 54 0
-282 -2 0
282 -54 2 0
-283 -281 0
-283 -282 0
283 281 282 0
-284 -5 0
-284 226 0
284 5 -226 0
-285 -189 0
-285 284 0
285 189 -284 0
-286 12 0
-286 189 0
286 -12 -189 0
-287 -285 0
-287 -286 0
287 285 286 0
-288 -55 0
-288 -287 0
288 55 287 0
-289 55 0
-289 287 0
289 -55 -287 0
-290 -288 0
-290 -289 0
290 288 289 0
-291 283 0
-291 290 0
291 -283 -290 0
-292 280 0
-292 291 0
292 -280 -291 0
-293 28 0
-293 16 0
293 -28 -16 0
-294 10 0
-294 -293 0
294 -10 293 0
295 -2 0
295 -294 0
-295 2 294 0
-296 -56 0
-296 -295 0
296 56 295 0
-297 56 0
-297 295 0
297 -56 -295 0
-298 -296 0
-298 -297 0
298 296 297 0
-299 -57 0
-299 15 0
299 57 -15 0
-300 57 0
-300 -15 0
300 -57 15 0
-301 -299 0
-301 -300 0
301 299 300 0
-302 298 0
-302 301 0
302 -298 -301 0
-303 3 0
-303 -214 0
303 -3 214 0
-304 -6 0
-304 303 0
304 6 -303 0
-305 -5 0
-305 304 0
305 5 -304 0
-306 12 0
-306 214 0
306 -12 -214 0
-307 -305 0
-307 -306 0
307 305 306 0
-308 -58 0
-308 -307 0
308 58 307 0
-309 58 0
-309 307 0
309 -58 -307 0
-310 -308 0
-310 -309 0
310 308 309 0
-311 -59 0
-311 3 0
311 59 -3 0
-312 59 0
-312 -3 0
312 -59 3 0
-313 -311 0
-313 -312 0
313 311 312 0
-314 310 0
-314 313 0
314 -310 -313 0
-315 302 0
-315 314 0
315 -302 -314 0
-316 292 0
-316 315 0
316 -292 -315 0
-317 273 0
-317 316 0
317 -273 -316 0
-318 -68 0
-318 9 0
318 68 -9 0
-319 68 0
-319 -9 0
319 -68 9 0
-320 -318 0
-320 -319 0
320 318 319 0
-321 -69 0
-321 13 0
321 69 -13 0
-322 69 0
-322 -13 0
322 -69 13 0
-323 -321 0
-323 -322 0
323 321 322 0
-324 320 0
-324 323 0
324 -320 -323 0
-325 -70 0
-325 10 0
325 70 -10 0
-326 70 0
-326 -10 0
326 -70 10 0
-327 -325 0
-327 -326 0
327 325 326 0
-328 -71 0
-328 8 0
328 71 -8 0
-329 71 0
-329 -8 0
329 -71 8 0
-330 -328 0
-330 -329 0
330 328 329 0
-331 327 0
-331 330 0
331 -327 -330 0
-332 324 0
-332 331 0
332 -324 -331 0
-333 192 0
-333 -211 0
333 -192 211 0
-334 -207 0
-334 -333 0
334 207 333 0
-335 -203 0
-335 -334 0
335 203 334 0
-336 -195 0
-336 -335 0
336 195 335 0
-337 -60 0
-337 -336 0
337 60 336 0
-338 60 0
-338 336 0
338 -60 -336 0
-339 -337 0
-339 -338 0
339 337 338 0
-340 191 0
-340 -211 0
340 -191 211 0
-341 -203 0
-341 -340 0
341 203 340 0
-342 -61 0
-342 -341 0
342 61 341 0
-343 61 0
-343 341 0
343 -61 -341 0
-344 -342 0
-344 -343 0
344 342 343 0
-345 339 0
-345 344 0
345 -339 -344 0
-346 -62 0
-346 190 0
346 62 -190 0
-347 62 0
-347 -190 0
347 -62 190 0
-348 -346 0
-348 -347 0
348 346 347 0
-349 -63 0
-349 11 0
349 63 -11 0
-350 63 0
-350 -11 0
350 -63 11 0
-351 -349 0
-351 -350 0
351 349 350 0
-352 348 0
-352 351 0
352 -348 -351 0
-353 345 0
-353 352 0
353 -345 -352 0
-354 36 0
-354 16 0
354 -36 -16 0
-355 354 0
-355 -213 0
355 -354 213 0
-356 -354 0
-356 213 0
356 354 -213 0
-357 -355 0
-357 -356 0
357 355 356 0
-358 -211 0
-358 -357 0
358 211 357 0
-359 -207 0
-359 358 0
359 207 -358 0
-360 -203 0
-360 359 0
360 203 -359 0
-361 -195 0
-361 360 0
361 195 -360 0
-362 -64 0
-362 361 0
362 64 -361 0
-363 64 0
-363 -361 0
363 -64 361 0
-364 -362 0
-364 -363 0
364 362 363 0
-365 -37 0
-365 354 0
365 37 -354 0
-366 365 0
-366 213 0
366 -365 -213 0
-367 37 0
-367 16 0
367 -37 -16 0
-368 36 0
-368 213 0
368 -36 -213 0
-369 367 0
-369 -368 0
369 -367 368 0
-370 -366 0
-370 -369 0
370 366 369 0
-371 -211 0
-371 -370 0
371 211 370 0
-372 -207 0
-372 371 0
372 207 -371 0
-373 -203 0
-373 372 0
373 203 -372 0
-374 -195 0
-374 373 0
374 195 -373 0
-375 -65 0
-375 374 0
375 65 -374 0
-376 65 0
-376 -374 0
376 -65 374 0
-377 -375 0
-377 -376 0
377 375 376 0
-378 364 0
-378 377 0
378 -364 -377 0
-379 38 0
-379 16 0
379 -38 -16 0
-380 379 0
-380 -213 0
380 -379 213 0
-381 36 0
-381 367 0
381 -36 -367 0
-382 381 0
-382 379 0
382 -381 -379 0
-383 -381 0
-383 -379 0
383 381 379 0
384 -382 0
384 -383 0
-384 382 383 0
-385 -384 0
-385 213 0
385 384 -213 0
-386 -380 0
-386 -385 0
386 380 385 0
-387 -211 0
-387 -386 0
387 211 386 0
-388 -207 0
-388 387 0
388 207 -387 0
-389 -203 0
-389 388 0
389 203 -388 0
-390 -195 0
-390 389 0
390 195 -389 0
-391 -66 0
-391 390 0
391 66 -390 0
-392 66 0
-392 -390 0
392 -66 390 0
-393 -391 0
-393 -392 0
393 391 392 0
-394 39 0
-394 16 0
394 -39 -16 0
-395 11 0
-395 -2 0
395 -11 2 0
-396 9 0
-396 -1 0
396 -9 1 0
-397 -395 0
-397 -396 0
397 395 396 0
-398 -394 0
-398 397 0
398 394 -397 0
-399 -67 0
-399 -398 0
399 67 398 0
-400 67 0
-400 398 0
400 -67 -398 0
-401 -399 0
-401 -400 0
401 399 400 0
-402 393 0
-402 401 0
402 -393 -401 0
-403 378 0
-403 402 0
403 -378 -402 0
-404 353 0
-404 403 0
404 -353 -403 0
-405 332 0
-405 404 0
405 -332 -404 0
-406 317 0
-406 405 0
406 -317 -405 0
-407 406 0
-407 186 0
407 -406 -186 0
-408 -26 0
-408 -23 0
408 26 23 0
409 16 0
409 -408 0
-409 -16 408 0
-410 21 0
-410 16 0
410 -21 -16 0
-411 409 0
-411 -410 0
411 -409 410 0
-412 15 0
-412 411 0
412 -15 -411 0
-413 -2 0
-413 293 0
413 2 -293 0
-414 10 0
-414 413 0
414 -10 -413 0
-415 35 0
-415 16 0
415 -35 -16 0
-416 -410 0
-416 -415 0
416 410 415 0
-417 10 0
-417 416 0
417 -10 -416 0
-418 7 0
-418 417 0
418 -7 -417 0
-419 -21 0
-419 415 0
419 21 -415 0
-420 10 0
-420 419 0
420 -10 -419 0
-421 -7 0
-421 420 0
421 7 -420 0
-422 40 0
-422 16 0
422 -40 -16 0
-423 -410 0
-423 -422 0
423 410 422 0
-424 -15 0
-424 423 0
424 15 -423 0
-425 7 0
-425 424 0
425 -7 -424 0
-426 -21 0
-426 422 0
426 21 -422 0
-427 -15 0
-427 426 0
427 15 -426 0
-428 -7 0
-428 427 0
428 7 -427 0
-429 12 0
-429 -2 0
429 -12 2 0
-430 -12 0
-430 2 0
430 12 -2 0
-431 -429 0
-431 -430 0
431 429 430 0
-432 8 0
-432 -431 0
432 -8 431 0
-433 12 0
-433 -1 0
433 -12 1 0
-434 -12 0
-434 1 0
434 12 -1 0
-435 -433 0
-435 -434 0
435 433 434 0
-436 -8 0
-436 -435 0
436 8 435 0
-437 -432 0
-437 -436 0
437 432 436 0
-438 41 0
-438 16 0
438 -41 -16 0
-439 438 0
-439 -189 0
439 -438 189 0
-440 200 0
-440 439 0
440 -200 -439 0
-441 -4 0
-441 -440 0
441 4 440 0
-442 437 0
-442 -441 0
442 -437 441 0
-443 19 0
-443 16 0
443 -19 -16 0
-444 3 0
-444 -443 0
444 -3 443 0
-445 -3 0
-445 443 0
445 3 -443 0
-446 -444 0
-446 -445 0
446 444 445 0
-447 42 0
-447 16 0
447 -42 -16 0
-448 -8 0
-448 447 0
448 8 -447 0
-449 8 0
-449 -447 0
449 -8 447 0
-450 -448 0
-450 -449 0
450 448 449 0
-451 29 0
-451 16 0
451 -29 -16 0
-452 8 0
-452 -451 0
452 -8 451 0
-453 -8 0
-453 451 0
453 8 -451 0
-454 -452 0
-454 -453 0
454 452 453 0
-455 450 0
-455 454 0
455 -450 -454 0
-456 446 0
-456 455 0
456 -446 -455 0
-457 438 0
-457 -456 0
457 -438 456 0
-458 442 0
-458 -457 0
458 -442 457 0
-459 31 0
-459 16 0
459 -31 -16 0
-460 -3 0
-460 459 0
460 3 -459 0
-461 3 0
-461 -459 0
461 -3 459 0
-462 -460 0
-462 -461 0
462 460 461 0
-463 43 0
-463 16 0
463 -43 -16 0
-464 8 0
-464 -463 0
464 -8 463 0
-465 -8 0
-465 463 0
465 8 -463 0
-466 -464 0
-466 -465 0
466 464 465 0
-467 462 0
-467 466 0
467 -462 -466 0
-468 4 0
-468 -467 0
468 -4 467 0
-469 458 0
-469 -468 0
469 -458 468 0
-470 -428 0
-470 469 0
470 428 -469 0
-471 -425 0
-471 470 0
471 425 -470 0
-472 -421 0
-472 471 0
472 421 -471 0
-473 -418 0
-473 472 0
473 418 -472 0
-474 7 0
-474 -443 0
474 -7 443 0
-475 -7 0
-475 443 0
475 7 -443 0
-476 -474 0
-476 -475 0
476 474 475 0
-477 10 0
-477 -447 0
477 -10 447 0
-478 -10 0
-478 447 0
478 10 -447 0
-479 -477 0
-479 -478 0
479 477 478 0
-480 -15 0
-480 451 0
480 15 -451 0
-481 15 0
-481 -451 0
481 -15 451 0
-482 -480 0
-482 -481 0
482 480 481 0
-483 479 0
-483 482 0
483 -479 -482 0
-484 476 0
-484 483 0
484 -476 -483 0
-485 410 0
-485 -484 0
485 -410 484 0
-486 473 0
-486 -485 0
486 -473 485 0
-487 -414 0
-487 486 0
487 414 -486 0
-488 -412 0
-488 487 0
488 412 -487 0
-489 -382 0
-489 488 0
489 382 -488 0
-490 -489 0
-490 398 0
490 489 -398 0
-491 72 0
-491 490 0
491 -72 -490 0
-492 -17 0
-492 -16 0
492 17 16 0
-493 -19 0
-493 -18 0
493 19 18 0
-494 492 0
-494 493 0
494 -492 -493 0
-495 -21 0
-495 -20 0
495 21 20 0
-496 -23 0
-496 -22 0
496 23 22 0
-497 495 0
-497 496 0
497 -495 -496 0
-498 494 0
-498 497 0
498 -494 -497 0
-499 -25 0
-499 -24 0
499 25 24 0
-500 -27 0
-500 -26 0
500 27 26 0
-501 499 0
-501 500 0
501 -499 -500 0
-502 -29 0
-502 -28 0
502 29 28 0
-503 -31 0
-503 -30 0
503 31 30 0
-504 502 0
-504 503 0
504 -502 -503 0
-505 501 0
-505 504 0
505 -501 -504 0
-506 498 0
-506 505 0
506 -498 -505 0
-507 -41 0
-507 -40 0
507 41 40 0
-508 -43 0
-508 -42 0
508 43 42 0
-509 507 0
-509 508 0
509 -507 -508 0
-510 -33 0
-510 -32 0
510 33 32 0
-511 -35 0
-511 -34 0
511 35 34 0
-512 510 0
-512 511 0
512 -510 -511 0
-513 -37 0
-513 -36 0
513 37 36 0
-514 -39 0
-514 -38 0
514 39 38 0
-515 513 0
-515 514 0
515 -513 -514 0
-516 512 0
-516 515 0
516 -512 -515 0
-517 509 0
-517 516 0
517 -509 -516 0
-518 506 0
-518 517 0
518 -506 -517 0
-519 -72 0
-519 518 0
519 72 -518 0
-520 -491 0
-520 -519 0
520 491 519 0
-521 -407 0
-521 520 0
521 407 -520 0
-522 -188 0
-522 521 0
522 188 -521 0
522 0
